data;
param nombreJob := 4;
param nombreRessource := 3;
param duree := 1 6 2 2 3 10 4 5;
param capaciteRessource := 1 6 2 16 3 10;
param besoinRessource : 1 2 3 :=
                    1   2 4 4
                    2   1 8 10
                    3   4 8 8
                    4   3 2 2;
end;

